NAME /Users/henri/Research/solvers/instances/idol-instances/robust/collection/cbp_Subramanyam_et_al_2020/CapBud_N15_8/models/uncertain_technology_matrix/
ROWS
 N  OBJ
 L  capacity
 L  c_1535
 L  c_1536
 L  c_1537
 L  c_1538
 L  c_1539
 L  c_1540
 L  c_1541
 L  c_1542
 L  c_1543
 L  c_1544
 L  c_1545
 L  c_1546
 L  c_1547
 L  c_1548
 L  c_1549
COLUMNS
    MARKER    'MARKER'                 'INTORG'
    x_0        OBJ        6.35396
    x_0        c_1535     1
    x_0        capacity   1.27079
    x_1        OBJ        9.91089
    x_1        c_1536     1
    x_1        capacity   1.98218
    x_2        OBJ        6.88512
    x_2        c_1537     1
    x_2        capacity   1.37702
    x_3        OBJ        5.39751
    x_3        c_1538     1
    x_3        capacity   1.0795
    x_4        OBJ        1.82109
    x_4        c_1539     1
    x_4        capacity   0.364219
    x_5        OBJ        2.64042
    x_5        c_1540     1
    x_5        capacity   0.528084
    x_6        OBJ        8.19845
    x_6        c_1541     1
    x_6        capacity   1.63969
    x_7        OBJ        0.69575
    x_7        c_1542     1
    x_7        capacity   0.13915
    x_8        OBJ        0.141687
    x_8        c_1543     1
    x_8        capacity   0.0283375
    x_9        OBJ        6.11361
    x_9        c_1544     1
    x_9        capacity   1.22272
    x_10       OBJ        6.76137
    x_10       c_1545     1
    x_10       capacity   1.35227
    x_11       OBJ        8.25739
    x_11       c_1546     1
    x_11       capacity   1.65148
    x_12       OBJ        5.30225
    x_12       c_1547     1
    x_12       capacity   1.06045
    x_13       OBJ        8.42369
    x_13       c_1548     1
    x_13       capacity   1.68474
    x_14       OBJ        8.25211
    x_14       c_1549     1
    x_14       capacity   1.65042
    y_0        OBJ        5.08316
    y_0        c_1535     1
    y_0        capacity   1.27079
    y_1        OBJ        7.92871
    y_1        c_1536     1
    y_1        capacity   1.98218
    y_2        OBJ        5.50809
    y_2        c_1537     1
    y_2        capacity   1.37702
    y_3        OBJ        4.31801
    y_3        c_1538     1
    y_3        capacity   1.0795
    y_4        OBJ        1.45688
    y_4        c_1539     1
    y_4        capacity   0.364219
    y_5        OBJ        2.11234
    y_5        c_1540     1
    y_5        capacity   0.528084
    y_6        OBJ        6.55876
    y_6        c_1541     1
    y_6        capacity   1.63969
    y_7        OBJ        0.5566
    y_7        c_1542     1
    y_7        capacity   0.13915
    y_8        OBJ        0.11335
    y_8        c_1543     1
    y_8        capacity   0.0283375
    y_9        OBJ        4.89089
    y_9        c_1544     1
    y_9        capacity   1.22272
    y_10       OBJ        5.4091
    y_10       c_1545     1
    y_10       capacity   1.35227
    y_11       OBJ        6.60591
    y_11       c_1546     1
    y_11       capacity   1.65148
    y_12       OBJ        4.2418
    y_12       c_1547     1
    y_12       capacity   1.06045
    y_13       OBJ        6.73895
    y_13       c_1548     1
    y_13       capacity   1.68474
    y_14       OBJ        6.60168
    y_14       c_1549     1
    y_14       capacity   1.65042
    MARKER    'MARKER'                 'INTEND'
RHS
    RHS       capacity   42.5776
    RHS       c_1535     1
    RHS       c_1536     1
    RHS       c_1537     1
    RHS       c_1538     1
    RHS       c_1539     1
    RHS       c_1540     1
    RHS       c_1541     1
    RHS       c_1542     1
    RHS       c_1543     1
    RHS       c_1544     1
    RHS       c_1545     1
    RHS       c_1546     1
    RHS       c_1547     1
    RHS       c_1548     1
    RHS       c_1549     1
BOUNDS
 LI BND       x_0        0
 UI BND       x_0        1
 LI BND       x_1        0
 UI BND       x_1        1
 LI BND       x_2        0
 UI BND       x_2        1
 LI BND       x_3        0
 UI BND       x_3        1
 LI BND       x_4        0
 UI BND       x_4        1
 LI BND       x_5        0
 UI BND       x_5        1
 LI BND       x_6        0
 UI BND       x_6        1
 LI BND       x_7        0
 UI BND       x_7        1
 LI BND       x_8        0
 UI BND       x_8        1
 LI BND       x_9        0
 UI BND       x_9        1
 LI BND       x_10       0
 UI BND       x_10       1
 LI BND       x_11       0
 UI BND       x_11       1
 LI BND       x_12       0
 UI BND       x_12       1
 LI BND       x_13       0
 UI BND       x_13       1
 LI BND       x_14       0
 UI BND       x_14       1
 LI BND       y_0        0
 UI BND       y_0        1
 LI BND       y_1        0
 UI BND       y_1        1
 LI BND       y_2        0
 UI BND       y_2        1
 LI BND       y_3        0
 UI BND       y_3        1
 LI BND       y_4        0
 UI BND       y_4        1
 LI BND       y_5        0
 UI BND       y_5        1
 LI BND       y_6        0
 UI BND       y_6        1
 LI BND       y_7        0
 UI BND       y_7        1
 LI BND       y_8        0
 UI BND       y_8        1
 LI BND       y_9        0
 UI BND       y_9        1
 LI BND       y_10       0
 UI BND       y_10       1
 LI BND       y_11       0
 UI BND       y_11       1
 LI BND       y_12       0
 UI BND       y_12       1
 LI BND       y_13       0
 UI BND       y_13       1
 LI BND       y_14       0
 UI BND       y_14       1
ENDATA
